benchmarks/hybrid_loop/c_smt2/91.c.smt
(set-logic LIA)

( declare-const x Int )
( declare-const x! Int )
( declare-const y Int )
( declare-const y! Int )

( declare-const x_0 Int )
( declare-const x_1 Int )
( declare-const y_0 Int )
( declare-const y_1 Int )

( define-fun inv-f( ( x Int )( y Int ) ) Bool
SPLIT_HERE_asdfghjklzxcvbnmqwertyuiop
)

( define-fun pre-f ( ( x Int )( y Int )( x_0 Int )( x_1 Int )( y_0 Int )( y_1 Int ) ) Bool
	( and
		( = x x_1 )
		( = y y_1 )
		( = x_1 0 )
		( = y_1 0 )
	)
)

( define-fun trans-f ( ( x Int )( y Int )( x! Int )( y! Int )( x_0 Int )( x_1 Int )( y_0 Int )( y_1 Int ) ) Bool
	( or
		( and
			( = y y_1 )
			( = y! y_1 )
			( = x x! )
		)
		( and
			( >= y_1 0 )
			( = 1 2 )
			(= x x_1 )
			(= x! x_1 )
			(= y y_1 )
			(= y! y_1 )
		)
	)
)

( define-fun post-f ( ( x Int )( y Int )( x_0 Int )( x_1 Int )( y_0 Int )( y_1 Int ) ) Bool
	( or
		( not
			( and
				( = x x_1)
				( = y y_1)
			)
		)
		( not
			( and
				( not ( >= y_1 0 ) )
				( not ( >= y_1 0 ) )
			)
		)
	)
)
SPLIT_HERE_asdfghjklzxcvbnmqwertyuiop
( assert ( not
	( =>
		( pre-f x y x_0 x_1 y_0 y_1  )
		( inv-f x y )
	)
))

SPLIT_HERE_asdfghjklzxcvbnmqwertyuiop
( assert ( not
	( =>
		( and
			( inv-f x y )
			( trans-f x y x! y! x_0 x_1 y_0 y_1 )
		)
		( inv-f x! y! )
	)
))

SPLIT_HERE_asdfghjklzxcvbnmqwertyuiop
( assert ( not
	( =>
		( inv-f x y  )
		( post-f x y x_0 x_1 y_0 y_1 )
	)
))

